qbf_easy_train/easy_5142_SAT.qdimacs
p cnf 16 27
a 10 4 0
e 1 2 3 5 6 7 8 9 11 12 13 14 15 16 0
-3 2 0
-3 -2 0
4 -1 0
4 -3 0
1 3 -4 0
7 5 0
7 6 0
-5 -6 -7 0
8 9 -10 0
-8 -9 -10 0
8 -9 10 0
-8 9 10 0
-13 -11 0
-13 -12 0
11 12 13 0
14 10 0
14 13 0
-10 -13 -14 0
15 7 0
15 -14 0
-7 14 -15 0
16 4 0
16 -15 0
-4 15 -16 0
-2 -1 0
2 11 -15 12 -8 0
16 0
