sat_easy_train/easy_5142_SAT.dimacs
p cnf 111 362
2 -1 0
2 -1 0
1 -2 0
5 -3 0
5 4 0
3 -4 -5 0
2 5 -6 0
-2 -5 -6 0
2 -5 6 0
-2 5 6 0
-3 -8 -9 0
3 8 -9 0
-3 8 9 0
3 -8 9 0
-7 -9 -10 0
7 9 -10 0
-7 9 10 0
7 -9 10 0
2 11 -12 0
-2 -11 -12 0
2 -11 12 0
-2 11 12 0
-15 -13 0
-15 -14 0
13 14 15 0
-16 -12 0
-16 15 0
12 -15 16 0
17 -10 0
17 16 0
10 -16 -17 0
-6 -17 -18 0
6 17 -18 0
-6 17 18 0
6 -17 18 0
-20 -19 0
-20 -4 0
19 4 20 0
1 9 -21 0
-1 -9 -21 0
1 -9 21 0
-1 9 21 0
-7 -21 -22 0
7 21 -22 0
-7 21 22 0
7 -21 22 0
23 20 0
23 -22 0
-20 22 -23 0
25 24 0
25 19 0
-24 -19 -25 0
25 -26 -27 0
-25 26 -27 0
25 26 27 0
-25 -26 27 0
28 -23 0
28 -27 0
23 27 -28 0
1 -11 -29 0
-1 11 -29 0
1 11 29 0
-1 -11 29 0
13 4 -30 0
-13 -4 -30 0
13 -4 30 0
-13 4 30 0
31 30 0
31 -1 0
-30 1 -31 0
-21 -31 -32 0
21 31 -32 0
-21 31 32 0
21 -31 32 0
-33 32 0
-33 20 0
-32 -20 33 0
34 -29 0
34 33 0
29 -33 -34 0
35 -3 0
35 -27 0
3 27 -35 0
36 35 0
36 27 0
-35 -27 -36 0
37 5 0
37 36 0
-5 -36 -37 0
-38 1 0
-38 -27 0
-1 27 38 0
-39 38 0
-39 -25 0
-38 25 39 0
-40 37 0
-40 -39 0
-37 39 40 0
-41 34 0
-41 40 0
-34 -40 41 0
-16 42 -43 0
16 -42 -43 0
-16 -42 43 0
16 42 43 0
-44 -10 0
-44 -43 0
10 43 44 0
-45 26 0
-45 -10 0
-26 10 45 0
42 45 -46 0
-42 -45 -46 0
42 -45 46 0
-42 45 46 0
-47 21 0
-47 46 0
-21 -46 47 0
-48 -44 0
-48 -47 0
44 47 48 0
-49 3 0
-49 19 0
-3 -19 49 0
-10 49 -50 0
10 -49 -50 0
-10 -49 50 0
10 49 50 0
52 -16 0
52 51 0
16 -51 -52 0
10 52 -53 0
-10 -52 -53 0
10 -52 53 0
-10 52 53 0
50 -53 -54 0
-50 53 -54 0
50 53 54 0
-50 -53 54 0
55 48 0
55 54 0
-48 -54 -55 0
-56 -41 0
-56 -55 0
41 55 56 0
58 22 0
58 -57 0
-22 57 -58 0
-59 58 0
-59 16 0
-58 -16 59 0
-52 -59 -60 0
52 59 -60 0
-52 59 60 0
52 -59 60 0
-61 -57 0
-61 1 0
57 -1 61 0
3 62 0
-3 62 0
-63 -61 0
-63 62 0
61 -62 63 0
-45 1 -64 0
45 -1 -64 0
-45 -1 64 0
45 1 64 0
63 -64 -65 0
-63 64 -65 0
63 64 65 0
-63 -64 65 0
60 -65 -66 0
-60 65 -66 0
60 65 66 0
-60 -65 66 0
67 56 0
67 66 0
-56 -66 -67 0
-28 67 -68 0
28 -67 -68 0
-28 -67 68 0
28 67 68 0
-69 -18 0
-69 68 0
18 -68 69 0
-70 9 0
-70 -61 0
-9 61 70 0
-25 -22 -71 0
25 22 -71 0
-25 22 71 0
25 -22 71 0
72 15 0
72 71 0
-15 -71 -72 0
-70 -72 -73 0
70 72 -73 0
-70 72 73 0
70 -72 73 0
69 73 -74 0
-69 -73 -74 0
69 -73 74 0
-69 73 74 0
75 7 0
75 -5 0
-7 5 -75 0
-77 75 0
-77 76 0
-75 -76 77 0
78 -71 0
78 -23 0
71 23 -78 0
80 46 0
80 -79 0
-46 79 -80 0
-81 -78 0
-81 -80 0
78 80 81 0
82 -77 0
82 -81 0
77 81 -82 0
83 -51 0
83 -25 0
51 25 -83 0
84 23 0
84 -83 0
-23 83 -84 0
85 -82 0
85 84 0
82 -84 -85 0
-86 20 0
-86 58 0
-20 -58 86 0
87 12 0
87 -9 0
-12 9 -87 0
-88 -86 0
-88 87 0
86 -87 88 0
-52 -23 -89 0
52 23 -89 0
-52 23 89 0
52 -23 89 0
-8 -89 -90 0
8 89 -90 0
-8 89 90 0
8 -89 90 0
91 6 0
91 -37 0
-6 37 -91 0
90 -91 -92 0
-90 91 -92 0
90 91 92 0
-90 -91 92 0
93 -92 0
93 63 0
92 -63 -93 0
94 -88 0
94 93 0
88 -93 -94 0
-95 37 0
-95 12 0
-37 -12 95 0
-94 95 -96 0
94 -95 -96 0
-94 -95 96 0
94 95 96 0
97 24 0
97 30 0
-24 -30 -97 0
98 -83 0
98 -27 0
83 27 -98 0
99 -97 0
99 -98 0
97 98 -99 0
100 24 0
100 -83 0
-24 83 -100 0
101 99 0
101 -100 0
-99 100 -101 0
102 -83 0
102 11 0
83 -11 -102 0
49 -79 -103 0
-49 79 -103 0
49 79 103 0
-49 -79 103 0
104 102 0
104 103 0
-102 -103 -104 0
105 101 0
105 104 0
-101 -104 -105 0
-106 96 0
-106 105 0
-96 -105 106 0
-107 85 0
-107 106 0
-85 -106 107 0
-108 74 0
-108 107 0
-74 -107 108 0
-109 -30 0
-109 9 0
30 -9 109 0
38 -109 -110 0
-38 109 -110 0
38 109 110 0
-38 -109 110 0
111 -108 0
111 -110 0
108 110 -111 0
-53 55 -50 10 14 0
-109 -13 -34 27 0
-38 18 57 -78 0
79 -45 -3 -51 69 38 0
38 -90 -91 27 0
79 66 106 0
33 -86 0
-73 33 25 75 109 0
54 -23 -37 0
89 -82 -36 21 22 27 0
102 -20 0
-14 96 105 -61 9 0
1 -89 -84 -18 -106 40 0
-98 -40 0
16 75 0
-11 -49 40 -60 -107 0
-83 97 0
-61 104 -79 -110 -8 -105 0
-50 -5 -72 0
102 -6 79 -51 0
9 102 -75 -29 47 -48 0
101 -106 -47 59 84 82 0
49 -28 0
-55 -88 74 0
27 32 0
-84 -61 -5 34 0
-52 -69 -83 -34 -84 0
108 23 -47 -26 -35 8 0
-88 -24 3 -77 41 0
-81 64 -15 0
87 -41 -101 -35 0
-85 74 -65 -17 72 0
104 -106 -58 -17 0
110 25 -82 0
31 86 -11 -64 0
41 27 74 20 -22 0
76 -91 -96 -41 0
25 -94 47 7 0
93 76 0
-94 92 -75 0
59 -111 99 -1 0
72 16 56 0
-28 37 60 0
-82 -109 100 0
-78 69 27 -106 -80 0
23 66 111 -34 0
-9 -110 -101 -85 28 -103 0
111 0
